; benchmark generated from python API
(set-info :status unknown)
(declare-fun syscall_stub_newfstatat_83_64 () (_ BitVec 64))
(declare-fun mem_c0080010_84_32 () (_ BitVec 32))
(declare-fun mem_c0080008_85_32 () (_ BitVec 32))
(declare-fun mem_c0080024_86_32 () (_ BitVec 32))
(declare-fun mem_c0080020_87_32 () (_ BitVec 32))
(declare-fun mem_c0080014_89_32 () (_ BitVec 32))
(declare-fun mem_c0080018_88_32 () (_ BitVec 32))
(declare-fun mem_c0000f45_79_992 () (_ BitVec 992))
(declare-fun mem_c0001010_98_32 () (_ BitVec 32))
(assert
 (let ((?x47 ((_ extract 31 0) syscall_stub_newfstatat_83_64)))
 (bvule ?x47 (_ bv4294963200 32))))
(assert
 (let ((?x116 ((_ zero_extend 32) mem_c0080010_84_32)))
 (let ((?x113 (bvshl ?x116 (_ bv1 64))))
 (let ((?x114 (bvadd ?x116 ?x113)))
 (let ((?x112 (bvshl ?x114 (_ bv2 64))))
 (let ((?x125 ((_ zero_extend 32) mem_c0080008_85_32)))
 (let ((?x119 (bvadd ?x125 ?x112)))
 (let ((?x108 ((_ zero_extend 32) mem_c0080024_86_32)))
 (let ((?x105 (bvshl ?x108 (_ bv1 64))))
 (let ((?x106 (bvadd ?x108 ?x105)))
 (let ((?x103 (bvshl ?x106 (_ bv3 64))))
 (let ((?x109 (bvadd ?x106 ?x103)))
 (let ((?x137 (bvshl ?x109 (_ bv2 64))))
 (let ((?x136 ((_ zero_extend 32) mem_c0080020_87_32)))
 (let ((?x138 (bvadd ?x136 ?x137)))
 (let (($x139 (bvslt ?x119 ?x138)))
 (let ((?x140 (ite $x139 ?x138 ?x119)))
 (let ((?x123 (bvadd mem_c0080018_88_32 mem_c0080014_89_32)))
 (let ((?x124 ((_ zero_extend 32) ?x123)))
 (let (($x141 (bvslt ?x140 ?x124)))
 (let ((?x142 (ite $x141 ?x124 ?x140)))
 (bvult (_ bv0 64) ?x142))))))))))))))))))))))
(assert
 (let ((?x1052 ((_ extract 903 896) mem_c0000f45_79_992)))
 (let ((?x1028 (bvand ?x1052 (_ bv16 8))))
 (= (_ bv0 8) ?x1028))))
(assert
 (and (distinct (_ bv0 32) mem_c0001010_98_32) true))
(assert
 (let ((?x2317 (concat ((_ extract 7 0) ((_ extract 839 776) mem_c0000f45_79_992)) ((_ extract 15 8) ((_ extract 839 776) mem_c0000f45_79_992)))))
 (let ((?x2329 (concat (concat ?x2317 ((_ extract 23 16) ((_ extract 839 776) mem_c0000f45_79_992))) ((_ extract 31 24) ((_ extract 839 776) mem_c0000f45_79_992)))))
 (let ((?x2339 (concat (concat ?x2329 ((_ extract 39 32) ((_ extract 839 776) mem_c0000f45_79_992))) ((_ extract 47 40) ((_ extract 839 776) mem_c0000f45_79_992)))))
 (let ((?x2335 (concat (concat ?x2339 ((_ extract 55 48) ((_ extract 839 776) mem_c0000f45_79_992))) ((_ extract 63 56) ((_ extract 839 776) mem_c0000f45_79_992)))))
 (let ((?x2398 (concat ((_ extract 7 0) ((_ extract 775 712) mem_c0000f45_79_992)) ((_ extract 15 8) ((_ extract 775 712) mem_c0000f45_79_992)))))
 (let ((?x2383 (concat (concat ?x2398 ((_ extract 23 16) ((_ extract 775 712) mem_c0000f45_79_992))) ((_ extract 31 24) ((_ extract 775 712) mem_c0000f45_79_992)))))
 (let ((?x2393 (concat (concat ?x2383 ((_ extract 39 32) ((_ extract 775 712) mem_c0000f45_79_992))) ((_ extract 47 40) ((_ extract 775 712) mem_c0000f45_79_992)))))
 (let ((?x2385 (concat (concat ?x2393 ((_ extract 55 48) ((_ extract 775 712) mem_c0000f45_79_992))) ((_ extract 63 56) ((_ extract 775 712) mem_c0000f45_79_992)))))
 (let ((?x2389 (bvsub ?x2385 ?x2335)))
 (let (($x2403 (= (_ bv0 64) ?x2389)))
 (let ((?x2430 (ite $x2403 (_ bv1 1) (_ bv0 1))))
 (let ((?x2421 ((_ extract 63 63) ?x2389)))
 (let ((?x2418 (bvor ?x2421 ?x2430)))
 (= (_ bv0 1) ?x2418)))))))))))))))
(assert
 (let ((?x2374 ((_ extract 839 832) mem_c0000f45_79_992)))
 (let ((?x2364 ((_ extract 831 824) mem_c0000f45_79_992)))
 (let ((?x2349 ((_ extract 823 816) mem_c0000f45_79_992)))
 (let ((?x2357 ((_ extract 815 808) mem_c0000f45_79_992)))
 (let ((?x2362 ((_ extract 807 800) mem_c0000f45_79_992)))
 (let ((?x2363 ((_ extract 799 792) mem_c0000f45_79_992)))
 (let ((?x593 (concat (concat ((_ extract 783 776) mem_c0000f45_79_992) ((_ extract 791 784) mem_c0000f45_79_992)) ?x2363)))
 (let ((?x4215 (concat (concat (concat (concat ?x593 ?x2362) ?x2357) ?x2349) ?x2364)))
 (let ((?x3812 (concat ?x4215 ?x2374)))
 (let ((?x3646 (bvmul (_ bv18446744073709551615 64) ?x3812)))
 (let ((?x2427 ((_ extract 775 768) mem_c0000f45_79_992)))
 (let ((?x2419 ((_ extract 767 760) mem_c0000f45_79_992)))
 (let ((?x2429 ((_ extract 759 752) mem_c0000f45_79_992)))
 (let ((?x2417 ((_ extract 751 744) mem_c0000f45_79_992)))
 (let ((?x2410 ((_ extract 743 736) mem_c0000f45_79_992)))
 (let ((?x2411 ((_ extract 735 728) mem_c0000f45_79_992)))
 (let ((?x4124 (concat (concat ((_ extract 719 712) mem_c0000f45_79_992) ((_ extract 727 720) mem_c0000f45_79_992)) ?x2411)))
 (let ((?x3823 (concat (concat (concat (concat (concat ?x4124 ?x2410) ?x2417) ?x2429) ?x2419) ?x2427)))
 (let ((?x3827 (bvadd ?x3823 ?x3646)))
 (let ((?x3615 ((_ extract 824 824) mem_c0000f45_79_992)))
 (let ((?x3589 (concat ?x3615 ?x2374)))
 (let ((?x4638 (bvmul (_ bv511 9) ?x3589)))
 (let ((?x4203 ((_ extract 760 760) mem_c0000f45_79_992)))
 (let ((?x3607 (concat ?x4203 ?x2427)))
 (let ((?x3785 (bvadd ?x3607 ?x4638)))
 (let (($x4511 (bvule ?x3785 (_ bv399 9))))
 (let ((?x4614 ((_ extract 63 9) ?x3827)))
 (let (($x4610 (= (_ bv0 55) ?x4614)))
 (let (($x4615 (and $x4610 $x4511)))
 (let ((?x4508 (ite $x4615 ?x3827 (_ bv399 64))))
 (and (distinct (_ bv0 64) ?x4508) true))))))))))))))))))))))))))))))))
(maximize mem_c0080024_86_32)
(maximize syscall_stub_newfstatat_83_64)
(minimize mem_c0080014_89_32)
(maximize mem_c0080018_88_32)
(minimize mem_c0080020_87_32)
(maximize mem_c0080008_85_32)
(maximize mem_c0000f45_79_992)
(minimize mem_c0000f45_79_992)
(maximize mem_c0080020_87_32)
(maximize mem_c0080014_89_32)
(maximize mem_c0080010_84_32)
(minimize mem_c0080008_85_32)
(minimize syscall_stub_newfstatat_83_64)
(minimize mem_c0080010_84_32)
(maximize mem_c0001010_98_32)
(minimize mem_c0080024_86_32)
(minimize mem_c0080018_88_32)
(minimize mem_c0001010_98_32)
(check-sat)
(get-objectives)
